(set-info :smt-lib-version 2.6)
(set-logic QF_SLIA)
(set-info :source |
Generated by: Dmitry Blotsky1, Federico Mora, Murphy Berzish, Yunhui Zheng, Ifaz Kabir, Vijay Ganesh, Zhengyang Lu
Generated on: 2018-01-24
Generator: StringFuzz
Application: Evaluate string solvers
Description: transformed by StringFuzz, a modular string and regex fuzzer, from an industrial benchmark
Target solver: Z3str3, CVC4, Z3str2, Norn
Publications: Blotsky, D., Mora, F., Berzish, M., Zheng, Y., Kabir, I., & Ganesh, V. (2018). Stringfuzz: A fuzzer for string solvers. In CAV 2018.
|)
(set-info :license "https://creativecommons.org/licenses/by/4.0/")
(set-info :category "random")
(set-info :status unknown)

(declare-const x String)
(declare-const y String)
(assert (str.in_re x (re.* (str.to_re "ab$B??"))))
(assert (str.in_re x (re.* (str.to_re "aXJN~'\\x0b'LXwN[*DX>gh'y4ln&,n>HPxY!'\\x0c'6|/t{\\\\0]L<w;AH/8DWD:@0LRGRKB2:F/k[w;vvz0:w,aixb_L[tQ[TGrXq(`;q'\\r''\\t'YQrg-TQxm0p]"))))
(assert (> (str.to.int x) 38))
(assert (< (str.to.int x) 2))
(check-sat)

(exit)
